DATASET = "thpack5";
INSTANCE = "022";

WIDTH = 233;
HEIGHT = 220;
LENGTH = 587;

NO_OF_SHAPES = 12;
size = [|
  89,78,50 |
  73,65,46 |
  94,66,39 |
  66,59,42 |
  106,93,70 |
  80,71,62 |
  60,36,26 |
  72,31,31 |
  63,63,31 |
  74,39,23 |
  105,72,52 |
  101,76,45 |
|];

verticality = [|
  1,1,1 |
  1,1,1 |
  0,1,1 |
  1,1,1 |
  1,1,1 |
  1,1,1 |
  0,1,1 |
  0,1,1 |
  0,0,1 |
  0,1,1 |
  0,1,1 |
  0,1,1 |
|];

box_count = [
  10,
  10,
  7,
  4,
  10,
  16,
  12,
  11,
  8,
  11,
  11,
  6,
];
